* ENCODING=ISO-8859-1
NAME          ilog.cplex
ROWS
 N  obj1    
 G  c1      
 L  c2      
 L  c3      
 L  c4      
 L  c5      
 L  c6      
 L  c7      
 L  c8      
 L  c9      
 E  c10     
 E  c11     
 E  c12     
 L  c13     
 E  c14     
 E  c15     
 L  c16     
 G  c17     
 G  c18     
 G  c19     
 L  c20     
 G  c21     
 L  c22     
 G  c23     
 L  c24     
 G  c25     
 L  c26     
 G  c27     
 L  c28     
 G  c29     
 L  c30     
 G  c31     
 L  c32     
 G  c33     
 L  c34     
 G  c35     
 L  c36     
 G  c37     
 L  c38     
 G  c39     
 G  c40     
 L  c41     
 L  c42     
COLUMNS
    t         obj1                           -1
    t         c12                             1
    t         c18                             1
    MARK0000  'MARKER'                 'INTORG'
    x2        c1                              3
    x2        c2                              3
    x2        c5                              3
    x2        c13                            -3
    x2        c15                             1
    x2        c16                             1
    x2        c17                             1
    x3        c1                              2
    x3        c2                              2
    x3        c3                              2
    x3        c13                            -2
    x3        c16                             1
    x3        c17                             1
    x4        c1                              1
    x4        c2                              1
    x4        c6                              1
    x4        c13                            -1
    x4        c16                             1
    x4        c17                             1
    x5        c1                              1
    x5        c2                              1
    x5        c4                              1
    x5        c13                            -1
    x5        c16                             1
    x5        c17                             1
    x6        c1                              2
    x6        c2                              2
    x6        c7                              2
    x6        c13                            -2
    x6        c16                             1
    x6        c17                             1
    x7        c1                              1
    x7        c2                              1
    x7        c8                              1
    x7        c13                            -1
    x7        c16                             1
    x7        c17                             1
    x8        c1                              1
    x8        c2                              1
    x8        c9                              1
    x8        c13                            -1
    x8        c16                             1
    x8        c17                             1
    x9        c3                            -12
    x9        c5                            -20
    x9        c10                             1
    x10       c3                             -8
    x10       c10                             1
    x11       c3                            -12
    x11       c4                            -98
    x11       c5                            -16
    x11       c10                             1
    x12       c3                             -6
    x12       c10                             1
    x13       c5                            -48
    x13       c10                             1
    x14       c6                            -88
    x14       c10                             1
    x15       c6                            -20
    x15       c10                             1
    x16       c6                            -48
    x16       c10                             1
    x17       c7                            -14
    x17       c10                             1
    x18       c7                            -13
    x18       c10                             1
    x19       c8                             -8
    x19       c10                             1
    x20       c9                             -8
    x20       c10                             1
    x21       c9                            -12
    x21       c10                             1
    x22       c9                            -16
    x22       c10                             1
    x23       c9                             -4
    x23       c10                             1
    x24       c9                            -19
    x24       c10                             1
    x25       c9                             -1
    x25       c10                             1
    x26       c9                            -17
    x26       c10                             1
    x27       c9                             -4
    x27       c10                             1
    x28       c9                             -1
    x28       c10                             1
    x29       c9                             -8
    x29       c10                             1
    x30       c9                            -13
    x30       c10                             1
    x31       c9                            -14
    x31       c10                             1
    x32       c9                             -8
    x32       c10                             1
    x33       c9                            -15
    x33       c10                             1
    x34       c9                            -14
    x34       c10                             1
    x35       c9                             -5
    x35       c10                             1
    x36       c9                             -8
    x36       c10                             1
    x37       c9                             -6
    x37       c10                             1
    x38       c9                            -16
    x38       c10                             1
    x39       c9                            -16
    x39       c10                             1
    x40       c9                            -23
    x40       c10                             1
    x41       c9                            -18
    x41       c10                             1
    MARK0001  'MARKER'                 'INTEND'
    Avar      c10                            -1
    Avar      c11                             1
    A_hat_0   c11                            -1
    A_hat_0   c21                             1
    A_hat_0   c22                             1
    A_hat_0   c39                            -2
    A_hat_0   c42                            -2
    A_hat_1   c11                            -1
    A_hat_1   c25                             1
    A_hat_1   c26                             1
    A_hat_1   c39            -0.285714285714286
    A_hat_1   c42            -0.285714285714286
    A_hat_2   c11                            -1
    A_hat_2   c29                             1
    A_hat_2   c30                             1
    A_hat_2   c39            -0.153846153846154
    A_hat_2   c42            -0.153846153846154
    A_hat_3   c11                            -1
    A_hat_3   c33                             1
    A_hat_3   c34                             1
    A_hat_3   c39            -0.105263157894737
    A_hat_3   c42            -0.105263157894737
    A_hat_4   c11                            -1
    A_hat_4   c37                             1
    A_hat_4   c38                             1
    A_hat_4   c39                         -0.08
    A_hat_4   c42                         -0.08
    t_hat_0   c12                            -1
    t_hat_0   c19                             1
    t_hat_0   c20                             1
    t_hat_0   c39                            -7
    t_hat_0   c40                            -1
    t_hat_0   c41                            -7
    t_hat_0   c42                            -1
    t_hat_1   c12                            -1
    t_hat_1   c23                             1
    t_hat_1   c24                             1
    t_hat_1   c39                           -13
    t_hat_1   c40                            -7
    t_hat_1   c41                           -13
    t_hat_1   c42                            -7
    t_hat_2   c12                            -1
    t_hat_2   c27                             1
    t_hat_2   c28                             1
    t_hat_2   c39                           -19
    t_hat_2   c40                           -13
    t_hat_2   c41                           -19
    t_hat_2   c42                           -13
    t_hat_3   c12                            -1
    t_hat_3   c31                             1
    t_hat_3   c32                             1
    t_hat_3   c39                           -25
    t_hat_3   c40                           -19
    t_hat_3   c41                           -25
    t_hat_3   c42                           -19
    t_hat_4   c12                            -1
    t_hat_4   c35                             1
    t_hat_4   c36                             1
    t_hat_4   c39                           -33
    t_hat_4   c40                           -25
    t_hat_4   c41                           -33
    t_hat_4   c42                           -25
    w         c13                             1
    w         c39                             1
    w         c40                             1
    w         c41                             1
    w         c42                             1
    MARK0002  'MARKER'                 'INTORG'
    z_0       c14                             1
    z_0       c20                            -2
    z_0       c21                            -1
    z_0       c22                            -7
    z_0       c39                            14
    z_0       c42                             2
    z_1       c14                             1
    z_1       c24            -0.285714285714286
    z_1       c25                            -7
    z_1       c26                           -13
    z_1       c39              3.71428571428571
    z_1       c42                             2
    z_2       c14                             1
    z_2       c28            -0.153846153846154
    z_2       c29                           -13
    z_2       c30                           -19
    z_2       c39              2.92307692307692
    z_2       c42                             2
    z_3       c14                             1
    z_3       c32            -0.105263157894737
    z_3       c33                           -19
    z_3       c34                           -25
    z_3       c39              2.63157894736842
    z_3       c42                             2
    z_4       c14                             1
    z_4       c36                         -0.08
    z_4       c37                           -25
    z_4       c38                           -33
    z_4       c39                          2.64
    z_4       c42                             2
    MARK0003  'MARKER'                 'INTEND'
RHS
    rhs       c2                              2
    rhs       c14                             1
    rhs       c16                             2
    rhs       c17                             1
    rhs       c18                      -0.00001
BOUNDS
 UP bnd       t                               2
 BV bnd       x2      
 BV bnd       x3      
 BV bnd       x4      
 BV bnd       x5      
 BV bnd       x6      
 BV bnd       x7      
 BV bnd       x8      
 BV bnd       x9      
 BV bnd       x10     
 BV bnd       x11     
 BV bnd       x12     
 BV bnd       x13     
 BV bnd       x14     
 BV bnd       x15     
 BV bnd       x16     
 BV bnd       x17     
 BV bnd       x18     
 BV bnd       x19     
 BV bnd       x20     
 BV bnd       x21     
 BV bnd       x22     
 BV bnd       x23     
 BV bnd       x24     
 BV bnd       x25     
 BV bnd       x26     
 BV bnd       x27     
 BV bnd       x28     
 BV bnd       x29     
 BV bnd       x30     
 BV bnd       x31     
 BV bnd       x32     
 BV bnd       x33     
 BV bnd       x34     
 BV bnd       x35     
 BV bnd       x36     
 BV bnd       x37     
 BV bnd       x38     
 BV bnd       x39     
 BV bnd       x40     
 BV bnd       x41     
 UP bnd       Avar                           33
 UP bnd       A_hat_0                        33
 UP bnd       A_hat_1                        33
 UP bnd       A_hat_2                        33
 UP bnd       A_hat_3                        33
 UP bnd       A_hat_4                        33
 UP bnd       t_hat_0                         2
 UP bnd       t_hat_1                         2
 UP bnd       t_hat_2                         2
 UP bnd       t_hat_3                         2
 UP bnd       t_hat_4                         2
 UP bnd       w                              66
 BV bnd       z_0     
 BV bnd       z_1     
 BV bnd       z_2     
 BV bnd       z_3     
 BV bnd       z_4     
ENDATA
